11111111111111111111
11111111111111111111
11111000000000011111
11111000000000011111
11111000000000011111
11111111111111111111
11111111111111111111
11111111111111111111
11111111111111111111
11111111111111111111
11111111111111111111
11111111111111111111
11111111111111111111
11111111111111111111
11111111111111111111
11111111111111111111
9 3
7
6 0 5 6
0 3 9 7
1 1 12 7
3 5 4 9
5 0 10 9
4 0 5 11
2 4 11 12